This is Ipopt version 3.10.0, running with linear solver ma27.

Number of nonzeros in equality constraint Jacobian...:        2
Number of nonzeros in inequality constraint Jacobian.:        4
Number of nonzeros in Lagrangian Hessian.............:        0

Total number of variables............................:        2
                     variables with only lower bounds:        0
                variables with lower and upper bounds:        2
                     variables with only upper bounds:        0
Total number of equality constraints.................:        1
Total number of inequality constraints...............:        2
        inequality constraints with only lower bounds:        0
   inequality constraints with lower and upper bounds:        0
        inequality constraints with only upper bounds:        2

iter    objective    inf_pr   inf_du lg(mu)  ||d||  lg(rg) alpha_du alpha_pr  ls
   0  9.6100278e+04 4.66e-01 3.00e+02   0.0 0.00e+00    -  0.00e+00 0.00e+00   0
   1  9.5504379e+04 4.63e-01 5.25e+03   2.1 3.47e+02    -  4.57e-01 4.66e-03h  1
   2  1.0506737e+05 2.68e-01 3.57e+05   1.9 1.86e+02    -  6.45e-03 4.31e-01h  1
   3  1.2920618e+05 2.18e-02 2.33e+02   2.0 1.03e+02    -  1.00e+00 1.00e+00h  1
   4  1.3212500e+05 1.45e-03 1.06e+01   0.6 5.24e+00    -  9.90e-01 9.92e-01h  1
   5  1.3176938e+05 3.72e-04 4.25e+01  -1.0 5.58e-01    -  9.90e-01 1.00e+00f  1
   6  1.3182178e+05 2.61e-05 2.76e-01  -2.4 7.92e-02    -  1.00e+00 9.98e-01h  1
   7  1.3181417e+05 2.10e-05 8.16e-05  -4.4 1.28e-02    -  1.00e+00 1.00e+00f  1

Number of Iterations....: 7

                                   (scaled)                 (unscaled)
Objective...............:   1.3181417104113358e+05    1.3181417104113358e+05
Dual infeasibility......:   8.1572548341421691e-05    8.1572548341421691e-05
Constraint violation....:   2.1048445687435755e-05    2.1048445687435755e-05
Complementarity.........:   3.6988737832000194e-05    3.6988737832000194e-05
Overall NLP error.......:   2.1048445687435755e-05    8.1572548341421691e-05


Number of objective function evaluations             = 8
Number of objective gradient evaluations             = 8
Number of equality constraint evaluations            = 8
Number of inequality constraint evaluations          = 8
Number of equality constraint Jacobian evaluations   = 8
Number of inequality constraint Jacobian evaluations = 8
Number of Lagrangian Hessian evaluations             = 0
Total CPU secs in IPOPT (w/o function evaluations)   =      0.005
Total CPU secs in NLP function evaluations           =      4.091

EXIT: Optimal Solution Found.
